p edge 143 623
e 1 17
e 1 72
e 2 3
e 2 19
e 2 20
e 2 27
e 2 29
e 2 31
e 2 48
e 2 65
e 2 67
e 2 69
e 2 71
e 2 132
e 2 136
e 3 4
e 3 19
e 3 20
e 3 28
e 3 31
e 3 65
e 3 67
e 3 69
e 3 71
e 3 132
e 3 136
e 4 19
e 4 20
e 4 27
e 4 29
e 4 31
e 4 54
e 4 69
e 4 71
e 4 132
e 4 136
e 5 22
e 5 72
e 6 9
e 6 13
e 6 16
e 6 26
e 6 47
e 6 49
e 6 64
e 6 66
e 6 105
e 7 11
e 7 12
e 7 24
e 7 74
e 7 75
e 8 112
e 8 124
e 9 13
e 9 47
e 9 49
e 9 51
e 9 56
e 9 66
e 9 74
e 9 75
e 9 78
e 9 91
e 9 139
e 10 17
e 10 21
e 10 37
e 10 53
e 10 70
e 10 72
e 10 122
e 10 124
e 11 12
e 11 17
e 11 32
e 11 37
e 11 74
e 11 124
e 11 137
e 12 32
e 12 37
e 12 74
e 12 75
e 13 26
e 13 32
e 13 47
e 13 49
e 13 56
e 13 66
e 13 75
e 13 105
e 13 139
e 14 16
e 14 22
e 14 26
e 14 50
e 14 64
e 14 68
e 14 72
e 14 73
e 14 132
e 15 85
e 16 26
e 16 47
e 16 50
e 16 64
e 16 73
e 16 105
e 16 107
e 16 122
e 17 21
e 17 24
e 17 25
e 17 32
e 17 36
e 17 37
e 17 39
e 17 40
e 17 41
e 17 43
e 17 48
e 17 55
e 17 58
e 17 60
e 17 61
e 17 70
e 17 76
e 17 82
e 17 95
e 17 101
e 17 104
e 17 105
e 17 115
e 17 121
e 17 122
e 17 124
e 17 128
e 18 19
e 18 20
e 18 27
e 18 29
e 18 31
e 18 48
e 18 65
e 18 67
e 18 69
e 18 132
e 19 20
e 19 27
e 19 28
e 19 29
e 19 31
e 19 48
e 19 54
e 19 67
e 19 69
e 19 71
e 19 132
e 19 136
e 20 27
e 20 28
e 20 29
e 20 31
e 20 54
e 20 65
e 20 67
e 20 69
e 20 71
e 20 107
e 20 132
e 20 136
e 21 70
e 21 83
e 21 105
e 21 124
e 22 31
e 22 38
e 22 48
e 22 50
e 22 64
e 22 68
e 22 72
e 22 91
e 22 105
e 22 111
e 22 126
e 22 140
e 23 33
e 23 87
e 23 91
e 23 111
e 23 120
e 24 25
e 24 39
e 24 58
e 24 60
e 24 122
e 24 124
e 25 55
e 25 60
e 26 47
e 26 51
e 26 64
e 26 74
e 26 91
e 26 105
e 26 139
e 27 31
e 27 48
e 27 69
e 27 71
e 27 136
e 28 31
e 28 65
e 28 67
e 28 69
e 28 123
e 28 132
e 28 136
e 29 54
e 29 67
e 29 69
e 29 71
e 29 132
e 29 136
e 30 38
e 30 44
e 30 65
e 30 123
e 31 48
e 31 50
e 31 65
e 31 67
e 31 69
e 31 72
e 31 132
e 31 134
e 31 136
e 32 37
e 32 40
e 32 43
e 32 49
e 32 55
e 32 56
e 32 66
e 32 74
e 32 75
e 32 103
e 32 124
e 32 137
e 32 141
e 33 34
e 33 120
e 34 81
e 34 120
e 35 43
e 35 50
e 35 53
e 35 76
e 35 77
e 35 105
e 35 107
e 35 119
e 35 123
e 35 125
e 36 37
e 36 39
e 36 58
e 36 60
e 36 89
e 37 40
e 37 56
e 37 72
e 37 74
e 37 100
e 37 105
e 37 115
e 37 137
e 38 91
e 39 40
e 39 41
e 39 48
e 39 58
e 39 60
e 39 70
e 40 60
e 41 59
e 41 60
e 41 104
e 41 115
e 41 121
e 41 122
e 42 81
e 43 52
e 43 53
e 43 61
e 43 77
e 43 90
e 43 91
e 43 95
e 43 99
e 43 100
e 43 101
e 43 103
e 43 105
e 43 109
e 43 117
e 43 122
e 43 142
e 44 77
e 44 78
e 44 105
e 45 68
e 45 105
e 45 118
e 45 119
e 46 95
e 46 100
e 46 108
e 47 49
e 47 51
e 47 56
e 47 66
e 47 67
e 47 77
e 47 90
e 47 105
e 47 131
e 47 137
e 47 139
e 48 58
e 48 60
e 48 69
e 48 72
e 48 74
e 48 90
e 48 91
e 48 99
e 48 101
e 48 121
e 48 132
e 48 136
e 49 51
e 49 56
e 49 66
e 49 75
e 49 139
e 50 53
e 50 64
e 50 65
e 50 68
e 50 72
e 50 105
e 50 107
e 50 118
e 50 123
e 50 142
e 50 143
e 51 66
e 51 75
e 51 94
e 51 112
e 51 130
e 51 132
e 51 139
e 52 105
e 53 57
e 53 63
e 53 64
e 53 77
e 53 105
e 53 118
e 53 119
e 53 123
e 53 125
e 53 142
e 54 69
e 54 71
e 54 136
e 55 60
e 56 66
e 56 74
e 56 75
e 56 90
e 56 95
e 56 105
e 56 122
e 56 137
e 57 74
e 57 95
e 57 102
e 57 105
e 57 117
e 57 121
e 58 60
e 58 70
e 58 104
e 58 115
e 59 75
e 59 137
e 60 104
e 60 115
e 60 121
e 60 124
e 61 95
e 61 101
e 61 105
e 61 121
e 62 95
e 62 112
e 64 73
e 64 74
e 64 105
e 64 132
e 64 142
e 64 143
e 65 67
e 65 73
e 65 118
e 65 123
e 65 125
e 65 132
e 65 136
e 66 95
e 66 131
e 66 139
e 67 69
e 67 71
e 67 118
e 67 125
e 67 132
e 67 136
e 68 72
e 68 91
e 68 105
e 68 123
e 68 125
e 68 134
e 68 143
e 69 71
e 69 72
e 69 136
e 70 79
e 70 124
e 71 136
e 72 105
e 72 132
e 72 134
e 72 135
e 72 136
e 72 143
e 73 123
e 73 125
e 73 132
e 73 143
e 74 75
e 74 94
e 74 105
e 74 108
e 74 114
e 74 132
e 74 137
e 75 95
e 75 97
e 75 131
e 75 137
e 75 139
e 76 89
e 76 100
e 76 105
e 76 115
e 77 82
e 77 99
e 77 100
e 77 101
e 77 105
e 77 109
e 77 142
e 78 91
e 78 105
e 78 111
e 78 118
e 78 124
e 79 90
e 79 102
e 79 121
e 80 112
e 82 91
e 82 95
e 82 115
e 82 116
e 82 120
e 83 90
e 83 104
e 83 105
e 83 122
e 84 86
e 84 127
e 84 130
e 84 141
e 85 86
e 85 113
e 85 126
e 85 129
e 85 130
e 85 133
e 85 134
e 85 141
e 86 113
e 86 129
e 86 130
e 86 141
e 87 111
e 87 116
e 88 95
e 88 112
e 90 99
e 90 101
e 90 109
e 91 105
e 91 107
e 91 111
e 91 116
e 91 120
e 91 122
e 91 128
e 91 142
e 92 141
e 93 100
e 93 109
e 94 102
e 94 112
e 94 121
e 95 100
e 95 101
e 95 102
e 95 105
e 95 108
e 95 109
e 95 112
e 95 117
e 95 118
e 95 122
e 95 124
e 95 142
e 96 126
e 96 128
e 97 105
e 98 130
e 99 101
e 99 104
e 99 109
e 99 110
e 99 124
e 100 109
e 100 115
e 100 117
e 100 124
e 101 103
e 101 105
e 101 109
e 101 118
e 102 105
e 102 114
e 102 117
e 102 121
e 102 122
e 103 109
e 103 117
e 104 110
e 104 121
e 104 124
e 105 107
e 105 111
e 105 117
e 105 118
e 105 119
e 105 122
e 105 123
e 105 125
e 105 139
e 105 142
e 106 111
e 106 115
e 106 116
e 106 120
e 107 118
e 107 119
e 107 125
e 108 112
e 110 122
e 110 124
e 110 138
e 112 124
e 114 121
e 115 120
e 118 119
e 118 123
e 118 125
e 118 142
e 118 143
e 119 123
e 119 143
e 121 137
e 122 142
e 123 125
e 123 143
e 124 138
e 126 129
e 126 130
e 127 130
e 127 141
e 129 130
e 129 134
e 129 141
e 130 141
e 131 137
e 132 136
e 133 141
e 134 135
e 134 140
e 142 143
